N = 5;
Capacity = 13;
Demand = [5, 3, 4, 9, 3];
Distance = [|
  0, 55, 43, 51, 32, 46
| 55, 0, 95, 106, 64, 95
| 43, 95, 0, 15, 62, 10
| 51, 106, 15, 0, 64, 23
| 32, 64, 62, 64, 0, 69
| 46, 95, 10, 23, 69, 0
|];
